c PicoSAT SAT Solver Version 936
c Copyright (c) 2006 - 2010 Armin Biere JKU Linz
c gcc -Wall -Wextra -DNDEBUG -O3 -fomit-frame-pointer -finline-limit=1000000
c
c using 2 as default phase
c
c parsing /home/necavit/workspace_li/sat-solver/sample_problems/vars-250-3.cnf
c parsed header 'p cnf 250 1063'
c initialized 250 variables
c found 1063 non trivial clauses
c
c random number generator seed 0
c 
c  seconds     variables   original    learned     agility
c         level        used      conflicts    limit          MB
c 
c s   0.0   0.0   250   0.0  1063     0     0     0   0.0   0.1 
c 
c initial reduction limit 531 clauses
c 
c +   0.0  25.3   250  92.0  1063   100   100   584  13.2   0.1 
c R   0.0  25.3   250  92.0  1063   101   101   584  13.2   0.1 
c +   0.0  19.6   250  97.2  1063   250   250   642  23.2   0.1 
c N   0.0  17.9   250  98.4  1063   403   403   642  27.4   0.2 
c +   0.0  17.5   250  99.2  1063   475   475   706  28.7   0.2 
c +   0.0  16.7   250  99.2  1063   812   456   776  29.3   0.2 
c N   0.0  15.8   250  99.2  1063  1203   456   776  28.7   0.2 
c +   0.0  15.6   250  99.2  1063  1317   570   853  29.3   0.2 
c +   0.0  15.3   250  99.2  1063  2074   464   938  28.9   0.2 
c +   0.0  14.8   250  99.2  1063  3209   649  1031  27.9   0.2 
c N   0.0  14.8   250  99.2  1063  3212   652  1031  27.9   0.2 
c 1   0.0  14.6   250  99.2  1063  4102  1022  1031  28.6   0.3 
c 
c  seconds     variables   original    learned     agility
c         level        used      conflicts    limit          MB
c 
s SATISFIABLE
v -1 -2 -3 4 5 6 7 8 -9 -10 -11 -12 -13 14 15 16 -17 -18 19 -20 -21 -22 23 -24
v 25 26 -27 28 29 30 31 -32 33 -34 35 36 37 38 39 -40 -41 42 -43 -44 -45 -46
v -47 48 -49 -50 -51 -52 53 -54 -55 -56 57 58 -59 -60 -61 62 63 -64 65 -66 -67
v -68 69 -70 -71 -72 -73 74 -75 -76 -77 78 79 -80 -81 -82 -83 84 85 86 87 88 89
v 90 91 -92 -93 94 95 96 97 -98 99 100 101 102 103 104 -105 -106 -107 108 -109
v 110 -111 -112 -113 -114 -115 116 -117 -118 119 -120 -121 122 -123 124 -125
v 126 127 128 129 130 131 -132 133 134 135 -136 137 138 139 140 141 142 -143
v -144 145 -146 147 148 149 -150 -151 -152 -153 154 -155 -156 -157 -158 159 160
v 161 -162 -163 164 165 166 167 -168 -169 170 -171 -172 -173 174 -175 176 -177
v 178 179 180 -181 -182 183 184 185 -186 -187 188 -189 190 191 -192 193 -194
v -195 196 197 -198 199 -200 -201 -202 -203 204 205 -206 -207 -208 -209 -210
v 211 -212 213 214 215 -216 217 218 -219 220 221 222 223 -224 225 -226 227 228
v -229 -230 231 -232 233 -234 -235 -236 237 -238 -239 240 241 -242 -243 244
v -245 -246 247 -248 249 -250 0
c
c 0 iterations
c 2 restarts
c 4102 conflicts
c 0 adc conflicts
c 4927 decisions
c 0 fixed variables
c 60707 learned literals
c 18.6% deleted literals
c 236169 propagations
c 99.2% variables used
c 0.0 seconds in library
c 5.4 megaprops/second
c 1 simplifications
c 7 reductions
c 0.4 MB recycled
c 0.3 MB maximally allocated
c 0.0 seconds total run time
Command exited with non-zero status 10
0.04
